
Gurobi 10.0.1 (linux64) logging started Sun Nov 26 15:37:23 2023

Set parameter LogFile to value "ArtificialInstance/ExperimentV2/S3T4K1/AdRo/gurobi1.txt"
Gurobi Optimizer version 10.0.1 build v10.0.1rc0 (linux64)

CPU model: AMD EPYC 7H12 64-Core Processor, instruction set [SSE2|AVX|AVX2]
Thread count: 128 physical cores, 128 logical processors, using up to 32 threads

Academic license 656792 - for non-commercial use only - registered to b.___@student.vu.nl
Optimize a model with 3711 rows, 3525 columns and 13801 nonzeros
Model fingerprint: 0xc317636f
Variable types: 1 continuous, 3524 integer (3524 binary)
Coefficient statistics:
  Matrix range     [1e+00, 4e+01]
  Objective range  [1e+00, 2e+01]
  Bounds range     [1e+00, 1e+00]
  RHS range        [1e+00, 1e+00]
Presolve removed 376 rows and 352 columns
Presolve time: 0.05s
Presolved: 3335 rows, 3173 columns, 12733 nonzeros
Variable types: 1 continuous, 3172 integer (3172 binary)
Found heuristic solution: objective 164.6815222

Root relaxation: objective 4.455220e+01, 2299 iterations, 0.10 seconds (0.08 work units)

    Nodes    |    Current Node    |     Objective Bounds      |     Work
 Expl Unexpl |  Obj  Depth IntInf | Incumbent    BestBd   Gap | It/Node Time

     0     0   44.55220    0  243  164.68152   44.55220  72.9%     -    0s
H    0     0                     135.6088041   44.55220  67.1%     -    0s
H    0     0                     128.4075333   44.55220  65.3%     -    0s
H    0     0                     124.4438229   44.55220  64.2%     -    0s
H    0     0                      56.3868749   44.55220  21.0%     -    0s
     0     0   47.49912    0  368   56.38687   47.49912  15.8%     -    0s
H    0     0                      51.4746057   47.49912  7.72%     -    0s
     0     0   48.02684    0  167   51.47461   48.02684  6.70%     -    0s
     0     0   48.02684    0  224   51.47461   48.02684  6.70%     -    0s
     0     0   48.13974    0  334   51.47461   48.13974  6.48%     -    0s
     0     0   51.46172    0  430   51.47461   51.46172  0.03%     -    0s
     0     0   51.46172    0  430   51.47461   51.46172  0.03%     -    0s
H    0     0                      51.4617219   51.46172  0.00%     -    0s
     0     0   51.46172    0  433   51.46172   51.46172  0.00%     -    0s

Cutting planes:
  Gomory: 8
  Zero half: 16
  RLT: 1

Explored 1 nodes (7960 simplex iterations) in 0.89 seconds (0.47 work units)
Thread count was 32 (of 128 available processors)

Solution count 7: 51.4617 51.4746 56.3869 ... 164.682

Optimal solution found (tolerance 1.00e-04)
Best objective 5.146172189898e+01, best bound 5.146172189898e+01, gap 0.0000%
